DATASET = "thpack4";
INSTANCE = "008";

WIDTH = 233;
HEIGHT = 220;
LENGTH = 587;

NO_OF_SHAPES = 10;
size = [|
  75,58,57 |
  57,37,30 |
  79,74,35 |
  104,99,74 |
  55,46,31 |
  99,98,33 |
  90,85,59 |
  115,74,44 |
  107,67,21 |
  81,76,55 |
|];

verticality = [|
  1,1,1 |
  1,1,1 |
  0,0,1 |
  1,1,1 |
  1,1,1 |
  0,0,1 |
  1,1,1 |
  0,1,1 |
  0,0,1 |
  1,1,1 |
|];

box_count = [
  8,
  11,
  14,
  8,
  11,
  15,
  9,
  7,
  11,
  13,
];
